0	3	33	9	15	48	16	2	33	13
3	0	26	20	22	47	36	29	19	15
33	26	0	42	1	3	34	45	10	31
9	20	42	0	50	37	27	34	22	14
15	22	1	50	0	14	35	10	25	42
48	47	3	37	14	0	34	19	7	50
16	36	34	27	35	34	0	24	30	37
2	29	45	34	10	19	24	0	12	18
33	19	10	22	25	7	30	12	0	30
13	15	31	14	42	50	37	18	30	0
